Maximize
  - 15 x0 + 46 x1 - 42 x2 + 0 x3 + 33 x4 - 30 x5 + 19 x6 - 20 x7 + 26 x8
   + 27 x9 + 7 x10 + 4 x11 + 0 x12 - 13 x13 + 43 x14 + 0 x15 + 0 x16
   + 0 x17 + 0 x18 - 31 x19 + 49 x20 - 9 x21 - 6 x22 + 0 x23 - 34 x24
   + 42 x25 + 0 x26 + 32 x27 - 17 x28 + 12 x29 + 44 x30 - 45 x31 + 24 x32
   + 27 x33 - 44 x34 + 0 x35 + 34 x36 + 45 x37 - 4 x38 - 6 x39 + [
   - 14 x0 ^2 + 96 x0 * x1 - 16 x0 * x3 + 58 x0 * x4 + 98 x0 * x5
   - 88 x0 * x6 - 50 x0 * x7 - 2 x0 * x8 - 58 x0 * x12 - 90 x0 * x13
   + 84 x0 * x14 + 18 x0 * x15 - 40 x0 * x16 + 44 x0 * x17 - 54 x0 * x18
   + 20 x0 * x20 + 72 x0 * x21 - 64 x0 * x22 + 96 x0 * x23 - 60 x0 * x24
   - 14 x0 * x25 + 60 x0 * x28 - 42 x0 * x29 + 10 x0 * x30 + 74 x0 * x32
   + 58 x0 * x34 + 44 x0 * x35 + 44 x0 * x37 - 14 x0 * x38 - 48 x1 * x2
   + 40 x1 * x4 + 80 x1 * x6 + 32 x1 * x7 + 54 x1 * x9 + 80 x1 * x10
   - 62 x1 * x11 - 32 x1 * x12 - 66 x1 * x14 - 10 x1 * x16 + 34 x1 * x17
   + 72 x1 * x18 - 2 x1 * x19 + 42 x1 * x20 - 20 x1 * x21 + 8 x1 * x23
   - 78 x1 * x26 + 34 x1 * x27 - 12 x1 * x28 + 34 x1 * x29 - 46 x1 * x31
   - 24 x1 * x32 - 74 x1 * x33 + 72 x1 * x35 - 74 x1 * x37 - 60 x1 * x38
   - 36 x1 * x39 - 32 x2 * x3 + 70 x2 * x4 + 82 x2 * x5 - 32 x2 * x6
   + 96 x2 * x7 + 12 x2 * x8 + 74 x2 * x9 + 24 x2 * x10 + 22 x2 * x11
   - 90 x2 * x14 - 82 x2 * x15 + 20 x2 * x16 - 38 x2 * x18 + 58 x2 * x19
   - 86 x2 * x21 + 60 x2 * x22 - 74 x2 * x23 + 26 x2 * x25 - 8 x2 * x26
   - 32 x2 * x28 + 12 x2 * x29 + 78 x2 * x31 + 60 x2 * x35 + 32 x2 * x36
   - 14 x2 * x37 + 42 x2 * x38 - 46 x2 * x39 + 24 x3 * x4 - 64 x3 * x5
   - 38 x3 * x7 + 86 x3 * x9 - 22 x3 * x10 - 98 x3 * x11 + 74 x3 * x12
   + 96 x3 * x14 + 34 x3 * x15 + 58 x3 * x16 - 8 x3 * x17 + 16 x3 * x18
   + 68 x3 * x20 + 10 x3 * x23 + 82 x3 * x24 - 94 x3 * x25 + 6 x3 * x26
   + 2 x3 * x28 + 94 x3 * x30 + 26 x3 * x31 - 46 x3 * x32 + 62 x3 * x34
   + 22 x3 * x35 + 58 x3 * x36 + 78 x3 * x37 - 46 x3 * x38 + 27 x4 ^2
   + 10 x4 * x6 + 16 x4 * x7 + 74 x4 * x8 + 18 x4 * x10 - 18 x4 * x13
   + 34 x4 * x14 + 38 x4 * x16 + 86 x4 * x17 + 66 x4 * x18 - 44 x4 * x19
   + 24 x4 * x20 + 12 x4 * x21 + 36 x4 * x22 + 96 x4 * x24 + 52 x4 * x25
   - 78 x4 * x26 + 48 x4 * x27 + 92 x4 * x28 + 38 x4 * x30 + 58 x4 * x31
   + 18 x4 * x32 - 4 x4 * x34 + 4 x4 * x35 + 44 x4 * x36 + 98 x4 * x37
   + 28 x4 * x38 + 6 x5 ^2 + 58 x5 * x6 - 4 x5 * x7 + 26 x5 * x10
   + 36 x5 * x11 - 38 x5 * x12 + 76 x5 * x15 - 90 x5 * x17 + 98 x5 * x18
   - 82 x5 * x19 + 34 x5 * x20 - 66 x5 * x21 + 4 x5 * x22 - 40 x5 * x23
   - 50 x5 * x24 - 60 x5 * x25 - 50 x5 * x27 - 16 x5 * x28 - 80 x5 * x29
   - 24 x5 * x30 - 36 x5 * x31 - 96 x5 * x33 + 70 x5 * x34 - 16 x5 * x36
   - 2 x5 * x37 + 40 x5 * x38 + 86 x5 * x39 + 18 x6 ^2 - 38 x6 * x9
   - 12 x6 * x10 - 82 x6 * x11 + 50 x6 * x12 + 4 x6 * x15 - 46 x6 * x16
   + 88 x6 * x17 - 88 x6 * x18 - 22 x6 * x19 + 40 x6 * x20 + 96 x6 * x22
   + 54 x6 * x23 - 16 x6 * x26 - 52 x6 * x27 + 32 x6 * x28 - 84 x6 * x30
   - 86 x6 * x31 - 32 x6 * x33 + 72 x6 * x36 + 20 x6 * x37 - 62 x6 * x38
   + 22 x6 * x39 + 30 x7 ^2 - 92 x7 * x8 - 70 x7 * x11 + 80 x7 * x12
   + 68 x7 * x13 + 54 x7 * x15 + 80 x7 * x16 - 16 x7 * x17 + 62 x7 * x18
   + 62 x7 * x19 + 26 x7 * x21 + 58 x7 * x22 - 28 x7 * x23 + 66 x7 * x24
   - 84 x7 * x25 + 92 x7 * x29 - 34 x7 * x30 + 54 x7 * x31 - 62 x7 * x32
   + 2 x7 * x34 + 34 x7 * x35 + 88 x7 * x36 + 60 x7 * x37 - 36 x7 * x38
   + 68 x7 * x39 - 19 x8 ^2 - 22 x8 * x9 + 92 x8 * x10 + 92 x8 * x11
   + 58 x8 * x13 + 56 x8 * x14 - 16 x8 * x15 - 88 x8 * x17 + 2 x8 * x18
   - 98 x8 * x19 + 26 x8 * x22 - 34 x8 * x23 + 28 x8 * x24 + 36 x8 * x27
   - 82 x8 * x28 + 28 x8 * x29 + 6 x8 * x33 - 72 x8 * x34 + 68 x8 * x36
   - 86 x8 * x37 - 22 x8 * x38 - 60 x8 * x39 + 44 x9 ^2 - 88 x9 * x10
   - 96 x9 * x12 + 16 x9 * x13 + 4 x9 * x15 + 14 x9 * x16 - 16 x9 * x17
   + 78 x9 * x18 - 84 x9 * x19 - 6 x9 * x22 + 98 x9 * x27 - 10 x9 * x28
   + 2 x9 * x29 + 6 x9 * x31 + 20 x9 * x32 - 90 x9 * x35 + 76 x9 * x36
   + 88 x9 * x37 - 66 x9 * x38 - 42 x9 * x39 + 11 x10 ^2 + 38 x10 * x11
   - 60 x10 * x13 - 88 x10 * x15 + 96 x10 * x16 + 18 x10 * x17
   + 26 x10 * x18 - 56 x10 * x19 - 86 x10 * x20 + 38 x10 * x22
   - 78 x10 * x23 - 76 x10 * x24 - 98 x10 * x25 + 20 x10 * x26
   + 80 x10 * x28 + 46 x10 * x29 - 64 x10 * x30 + 18 x10 * x31
   - 94 x10 * x32 + 24 x10 * x33 + 80 x10 * x35 - 38 x10 * x36
   - 52 x10 * x37 - 10 x10 * x39 + 20 x11 * x13 - 52 x11 * x15
   - 58 x11 * x19 - 94 x11 * x20 - 36 x11 * x21 + 4 x11 * x22
   + 82 x11 * x23 + 6 x11 * x24 - 64 x11 * x25 - 66 x11 * x26
   - 90 x11 * x27 - 24 x11 * x29 - 74 x11 * x30 - 96 x11 * x33
   + 88 x11 * x34 + 30 x11 * x35 - 86 x11 * x36 + 80 x11 * x37
   + 4 x11 * x38 - 66 x11 * x39 - 32 x12 ^2 - 48 x12 * x14 + 78 x12 * x16
   - 40 x12 * x17 + 6 x12 * x20 + 96 x12 * x21 - 38 x12 * x23
   - 52 x12 * x25 + 22 x12 * x26 - 74 x12 * x27 - 56 x12 * x28
   - 52 x12 * x29 - 86 x12 * x31 + 98 x12 * x33 - 44 x12 * x34
   + 88 x12 * x35 + 50 x12 * x36 + 70 x12 * x39 + 40 x13 ^2 + 72 x13 * x14
   + 14 x13 * x15 + 34 x13 * x16 + 20 x13 * x17 - 10 x13 * x18
   - 22 x13 * x19 - 62 x13 * x20 + 30 x13 * x22 + 82 x13 * x25
   - 42 x13 * x26 - 46 x13 * x29 + 72 x13 * x30 - 84 x13 * x32
   + 94 x13 * x33 + 50 x13 * x34 - 58 x13 * x35 - 30 x13 * x37
   - 76 x13 * x38 - 41 x14 ^2 - 60 x14 * x15 + 16 x14 * x16 - 12 x14 * x17
   + 66 x14 * x18 + 2 x14 * x20 + 98 x14 * x22 + 76 x14 * x23
   - 78 x14 * x28 - 18 x14 * x30 + 18 x14 * x31 + 84 x14 * x32
   + 50 x14 * x33 + 62 x14 * x34 + 54 x14 * x35 + 88 x14 * x36
   - 80 x14 * x37 + 24 x14 * x38 - 5 x15 ^2 + 66 x15 * x16 - 2 x15 * x18
   + 86 x15 * x20 - 24 x15 * x21 + 44 x15 * x22 - 28 x15 * x28
   - 74 x15 * x30 - 26 x15 * x31 - 36 x15 * x33 - 24 x15 * x34
   - 22 x15 * x36 - 22 x15 * x38 + 22 x15 * x39 + 32 x16 * x17
   + 44 x16 * x19 + 66 x16 * x20 + 70 x16 * x22 + 82 x16 * x23
   - 44 x16 * x24 - 18 x16 * x25 + 58 x16 * x26 + 10 x16 * x27
   + 20 x16 * x28 - 82 x16 * x29 + 34 x16 * x30 - 68 x16 * x31
   + 26 x16 * x32 - 28 x16 * x35 - 52 x16 * x36 + 28 x16 * x37
   + 80 x16 * x38 + 10 x17 ^2 - 38 x17 * x18 + 52 x17 * x19 + 86 x17 * x21
   - 20 x17 * x22 - 62 x17 * x23 + 72 x17 * x24 + 88 x17 * x25
   - 82 x17 * x26 + 64 x17 * x27 + 86 x17 * x28 - 82 x17 * x32
   + 26 x17 * x33 - 6 x17 * x35 - 88 x17 * x37 - 26 x17 * x38
   + 24 x17 * x39 + 78 x18 * x20 - 64 x18 * x21 - 42 x18 * x22
   - 36 x18 * x23 + 80 x18 * x24 + 2 x18 * x25 + 2 x18 * x26 + 28 x18 * x27
   + 28 x18 * x28 - 8 x18 * x29 + 20 x18 * x31 - 20 x18 * x33
   - 16 x18 * x34 - 50 x18 * x35 - 42 x18 * x36 + 56 x18 * x38
   - 28 x18 * x39 - 64 x19 * x20 - 78 x19 * x21 + 14 x19 * x23
   - 68 x19 * x26 + 44 x19 * x27 - 32 x19 * x28 - 84 x19 * x30
   + 22 x19 * x31 + 76 x19 * x32 - 62 x19 * x36 + 86 x19 * x37
   + 16 x19 * x39 + 13 x20 ^2 - 74 x20 * x21 + 72 x20 * x23 - 78 x20 * x24
   - 4 x20 * x25 + 70 x20 * x27 - 52 x20 * x28 + 98 x20 * x30
   - 12 x20 * x31 - 16 x20 * x32 - 24 x20 * x33 - 52 x20 * x34
   + 84 x20 * x36 - 76 x20 * x37 + 6 x20 * x38 + 84 x20 * x39
   - 70 x21 * x22 + 52 x21 * x24 + 40 x21 * x25 - 34 x21 * x27
   + 2 x21 * x31 + 30 x21 * x33 - 42 x21 * x34 + 38 x21 * x35
   - 28 x21 * x37 - 2 x21 * x38 + 8 x21 * x39 + 3 x22 ^2 + 90 x22 * x23
   + 72 x22 * x24 + 98 x22 * x25 + 68 x22 * x26 + 18 x22 * x27
   + 22 x22 * x28 - 54 x22 * x29 - 60 x22 * x30 - 2 x22 * x31
   - 14 x22 * x32 - 4 x22 * x33 - 30 x22 * x35 - 30 x22 * x36
   + 76 x22 * x39 - 80 x23 * x24 + 54 x23 * x25 - 6 x23 * x26
   + 74 x23 * x28 - 92 x23 * x30 - 88 x23 * x32 + 42 x23 * x33
   + 72 x23 * x35 + 4 x23 * x36 + 84 x23 * x38 - 34 x24 ^2 - 32 x24 * x25
   + 26 x24 * x26 + 20 x24 * x27 + 36 x24 * x28 + 58 x24 * x29
   + 82 x24 * x30 - 60 x24 * x31 - 84 x24 * x33 + 84 x24 * x34
   + 40 x24 * x35 - 94 x24 * x36 + 18 x24 * x38 - 31 x25 ^2 + 94 x25 * x27
   - 56 x25 * x28 - 94 x25 * x29 - 40 x25 * x32 + 6 x25 * x33 - 4 x25 * x34
   - 2 x25 * x36 + 56 x25 * x37 + 40 x25 * x38 + 42 x25 * x39 - 45 x26 ^2
   - 34 x26 * x27 + 18 x26 * x29 + 14 x26 * x35 - 38 x26 * x36
   - 44 x26 * x37 + 34 x26 * x38 + 26 x26 * x39 - 14 x27 ^2 + 46 x27 * x28
   + 52 x27 * x29 + 36 x27 * x30 + 2 x27 * x31 - 58 x27 * x32
   + 24 x27 * x34 - 28 x27 * x37 - 48 x28 * x29 + 64 x28 * x31
   - 48 x28 * x32 + 64 x28 * x35 - 66 x28 * x36 - 22 x28 * x37
   + 22 x28 * x38 + 41 x29 ^2 + 12 x29 * x33 + 82 x29 * x35 + 56 x29 * x36
   + 26 x29 * x37 + 32 x29 * x39 - 12 x30 ^2 - 46 x30 * x31 - 62 x30 * x32
   - 78 x30 * x34 - 12 x30 * x35 + 78 x30 * x36 - 60 x30 * x39 - 18 x31 ^2
   - 92 x31 * x32 - 94 x31 * x34 - 16 x31 * x36 + 62 x31 * x37
   + 8 x31 * x38 + 76 x31 * x39 + 22 x32 ^2 - 4 x32 * x33 + 96 x32 * x39
   + 2 x33 * x34 - 86 x33 * x36 - 48 x33 * x37 - 34 x33 * x38
   + 62 x33 * x39 + 3 x34 ^2 - 4 x34 * x36 - 36 x34 * x37 - 42 x34 * x38
   + 96 x34 * x39 + 25 x35 ^2 + 38 x35 * x37 + 6 x35 * x38 - 86 x36 * x37
   + 14 x36 * x39 + 2 x37 * x39 - 21 x38 ^2 + 46 x38 * x39 ] / 2 
Subject To
Bounds
 x0 <= 1
 x1 <= 1
 x2 <= 1
 x3 <= 1
 x4 <= 1
 x5 <= 1
 x6 <= 1
 x7 <= 1
 x8 <= 1
 x9 <= 1
 x10 <= 1
 x11 <= 1
 x12 <= 1
 x13 <= 1
 x14 <= 1
 x15 <= 1
 x16 <= 1
 x17 <= 1
 x18 <= 1
 x19 <= 1
 x20 <= 1
 x21 <= 1
 x22 <= 1
 x23 <= 1
 x24 <= 1
 x25 <= 1
 x26 <= 1
 x27 <= 1
 x28 <= 1
 x29 <= 1
 x30 <= 1
 x31 <= 1
 x32 <= 1
 x33 <= 1
 x34 <= 1
 x35 <= 1
 x36 <= 1
 x37 <= 1
 x38 <= 1
 x39 <= 1
End
